; benchmark generated from python API
(set-info :status unknown)
(declare-fun S_1 () Real)
(declare-fun S_2 () Real)
(declare-fun A_1 () Real)
(declare-fun L_1 () Real)
(declare-fun Q_2 () Real)
(declare-fun A_2 () Real)
(declare-fun S_0 () Real)
(declare-fun L_0 () Real)
(declare-fun A_0 () Real)
(assert
 (let (($x584 (>= Q_2 0.0)))
 (let (($x945 (= Q_2 0.0)))
 (let ((?x440 (* (- 1.0) A_0)))
 (let ((?x538 (* (- 1.0) A_2)))
 (let (($x243 (or (<= (+ ?x538 ?x440 Q_2 L_0 (* 2.0 S_1) L_1) 0.0) $x945)))
 (let (($x834 (<= (+ (* (- 1.0) L_1) A_1 (* (- 1.0) S_2)) 0.0)))
 (let (($x705 (<= (+ A_0 (* (- 1.0) Q_2) (* (- 1.0) S_1) (* (- 1.0) L_1)) 0.0)))
 (let ((?x345 (* (- 1.0) L_1)))
 (let ((?x567 (* (- 2.0) S_2)))
 (let ((?x336 (* (- 1.0) L_0)))
 (let ((?x317 (* (- 1.0) Q_2)))
 (let (($x554 (<= (+ A_2 A_0 ?x317 ?x336 ?x567 ?x345) 0.0)))
 (let ((?x581 (* (- 2.0) A_1)))
 (let ((?x668 (* 2.0 L_1)))
 (let ((?x684 (* 2.0 Q_2)))
 (let (($x578 (<= (+ ?x440 Q_2 S_0 L_1) 0.0)))
 (let (($x293 (= ?x345 ?x336)))
 (let (($x1048 (or $x834 (<= (+ (* (/ 1.0 2.0) A_0) (* (- (/ 1.0 2.0)) L_0) (* (- (/ 1.0 2.0)) S_2)) 0.0))))
 (and (<= ?x345 ?x336) (or $x554 (<= (+ ?x317 (* (- 1.0) S_2) ?x345 A_1) 0.0)) $x1048 (or $x293 $x578 (<= (+ Q_2 S_1 L_1 (* (- 1.0) A_1)) 0.0)) (or $x293 $x578 (<= (+ A_0 ?x684 ?x336 S_2 ?x668 ?x581) 0.0) $x945) (or $x554 $x705 $x834) $x243 $x584 (<= (+ ?x440 L_0 S_0) 0.0) (<= (+ (* (- 1.0) S_1) S_0) 0.0) (<= (+ ?x538 Q_2 S_2 L_1) 0.0) (<= (+ L_1 (* (- 1.0) A_1) S_1) 0.0) (<= (+ (* (- 1.0) S_2) S_1) 0.0)))))))))))))))))))))
(check-sat)
